50 970
114 38 133 95 612 171 918 408 714 510 114 76 57 204 1020 816 190 510 114 714 152 38 918 190 612 510 306 95 816 714 114 76 918 133 102 306 612 1020 102 1020 918 510 918 114 76 57 918 95 612 204 
582 194 679 485 396 873 594 264 462 330 582 388 291 132 660 528 970 330 582 462 776 194 594 970 396 330 198 485 528 462 582 388 594 679 66 198 396 660 66 660 594 330 594 582 388 291 594 485 396 132 
